[Molden Format]
made by pyscf v[2.12.1]
[Atoms] (AU)
H   1   1     3.05764109897489     0.00000000000000     0.00000000000000
H   2   1     2.47368361176997     1.79723634478079     0.00000000000000
H   3   1     0.94486306228253     2.90798949167194     0.00000000000000
H   4   1    -0.94486306228253     2.90798949167194     0.00000000000000
H   5   1    -2.47368361176997     1.79723634478079     0.00000000000000
H   6   1    -3.05764109897489     0.00000000000000     0.00000000000000
H   7   1    -2.47368361176998    -1.79723634478079     0.00000000000000
H   8   1    -0.94486306228253    -2.90798949167194     0.00000000000000
H   9   1     0.94486306228253    -2.90798949167194     0.00000000000000
H   10   1     2.47368361176997    -1.79723634478079     0.00000000000000
[GTO]
1 0
 s    3 1.00
            3.42525091    0.15432897070298
            0.62391373    0.53532814243847
             0.1688554    0.44463454202535

2 0
 s    3 1.00
            3.42525091    0.15432897070298
            0.62391373    0.53532814243847
             0.1688554    0.44463454202535

3 0
 s    3 1.00
            3.42525091    0.15432897070298
            0.62391373    0.53532814243847
             0.1688554    0.44463454202535

4 0
 s    3 1.00
            3.42525091    0.15432897070298
            0.62391373    0.53532814243847
             0.1688554    0.44463454202535

5 0
 s    3 1.00
            3.42525091    0.15432897070298
            0.62391373    0.53532814243847
             0.1688554    0.44463454202535

6 0
 s    3 1.00
            3.42525091    0.15432897070298
            0.62391373    0.53532814243847
             0.1688554    0.44463454202535

7 0
 s    3 1.00
            3.42525091    0.15432897070298
            0.62391373    0.53532814243847
             0.1688554    0.44463454202535

8 0
 s    3 1.00
            3.42525091    0.15432897070298
            0.62391373    0.53532814243847
             0.1688554    0.44463454202535

9 0
 s    3 1.00
            3.42525091    0.15432897070298
            0.62391373    0.53532814243847
             0.1688554    0.44463454202535

10 0
 s    3 1.00
            3.42525091    0.15432897070298
            0.62391373    0.53532814243847
             0.1688554    0.44463454202535

[5d]
[7f]
[9g]

[MO]
 Sym= A
 Ene=               0
 Spin= Alpha
 Occup=    1.00000
   1       1.2626680208984
   2     -0.34843348016199
   3     0.053002232493916
   4     -0.01324041198452
   5    0.0016033964671894
   6    -0.0021412960626255
   7    0.0016033964671894
   8     -0.01324041198452
   9     0.053002232493916
  10     -0.34843348016199
 Sym= A
 Ene=               1
 Spin= Alpha
 Occup=    1.00000
   1     -0.34843348016199
   2       1.2626680208984
   3     -0.34843348016199
   4     0.053002232493915
   5     -0.01324041198452
   6    0.0016033964671892
   7    -0.0021412960626255
   8    0.0016033964671893
   9     -0.01324041198452
  10     0.053002232493915
 Sym= A
 Ene=               2
 Spin= Alpha
 Occup=    1.00000
   1     0.053002232493916
   2     -0.34843348016199
   3       1.2626680208984
   4     -0.34843348016199
   5     0.053002232493915
   6     -0.01324041198452
   7    0.0016033964671893
   8    -0.0021412960626254
   9    0.0016033964671893
  10     -0.01324041198452
 Sym= A
 Ene=               3
 Spin= Alpha
 Occup=    1.00000
   1     -0.01324041198452
   2     0.053002232493915
   3     -0.34843348016199
   4       1.2626680208984
   5     -0.34843348016199
   6     0.053002232493916
   7     -0.01324041198452
   8    0.0016033964671897
   9    -0.0021412960626253
  10     0.001603396467189
 Sym= A
 Ene=               4
 Spin= Alpha
 Occup=    1.00000
   1    0.0016033964671893
   2     -0.01324041198452
   3     0.053002232493915
   4     -0.34843348016199
   5       1.2626680208984
   6     -0.34843348016199
   7     0.053002232493916
   8     -0.01324041198452
   9    0.0016033964671892
  10    -0.0021412960626255
 Sym= A
 Ene=               5
 Spin= Alpha
 Occup=    0.00000
   1    -0.0021412960626255
   2    0.0016033964671892
   3     -0.01324041198452
   4     0.053002232493916
   5     -0.34843348016199
   6       1.2626680208984
   7     -0.34843348016199
   8     0.053002232493916
   9     -0.01324041198452
  10    0.0016033964671892
 Sym= A
 Ene=               6
 Spin= Alpha
 Occup=    0.00000
   1    0.0016033964671894
   2    -0.0021412960626255
   3    0.0016033964671893
   4     -0.01324041198452
   5     0.053002232493916
   6     -0.34843348016199
   7       1.2626680208984
   8     -0.34843348016199
   9     0.053002232493916
  10     -0.01324041198452
 Sym= A
 Ene=               7
 Spin= Alpha
 Occup=    0.00000
   1     -0.01324041198452
   2    0.0016033964671892
   3    -0.0021412960626254
   4    0.0016033964671897
   5     -0.01324041198452
   6     0.053002232493916
   7     -0.34843348016199
   8       1.2626680208984
   9     -0.34843348016199
  10     0.053002232493916
 Sym= A
 Ene=               8
 Spin= Alpha
 Occup=    0.00000
   1     0.053002232493916
   2     -0.01324041198452
   3    0.0016033964671892
   4    -0.0021412960626254
   5    0.0016033964671892
   6     -0.01324041198452
   7     0.053002232493916
   8     -0.34843348016199
   9       1.2626680208984
  10     -0.34843348016199
 Sym= A
 Ene=               9
 Spin= Alpha
 Occup=    0.00000
   1     -0.34843348016199
   2     0.053002232493915
   3     -0.01324041198452
   4     0.001603396467189
   5    -0.0021412960626255
   6    0.0016033964671892
   7     -0.01324041198452
   8     0.053002232493916
   9     -0.34843348016199
  10       1.2626680208984
